(declare-fun temp12085_1 () (_ BitVec 64))
(declare-fun temp12085_2 () (_ BitVec 64))
(declare-fun var75099 () (_ BitVec 64))
(declare-fun k!0 () Bool)
(declare-fun ARGNAME_input_NAMEEND_DIM () (_ BitVec 64))
(declare-fun temp12085_3 () (_ BitVec 64))
(declare-fun ARGNAME_sections_NAMEEND () (_ BitVec 64))
(declare-fun var75128 () (_ BitVec 64))
(declare-fun temp12085_4 () (_ BitVec 64))
(declare-fun temp12085_6 () (_ BitVec 64))
(declare-fun temp12085_5 () (_ BitVec 64))
(declare-fun temp12085_8 () (_ BitVec 64))
(declare-fun temp12085_7 () (_ BitVec 64))
(declare-fun var396610 () (_ BitVec 64))
(declare-fun temp12085_9 () (_ BitVec 64))
(declare-fun temp12085_10 () (_ BitVec 64))
(declare-fun var462151 () (_ BitVec 64))
(declare-fun var527698 () (_ BitVec 64))
(declare-fun var330637 () (_ BitVec 64))
(declare-fun temp12085_11 () (_ BitVec 64))
(declare-fun var1064603 () (_ BitVec 64))
(declare-fun temp12085_12 () (_ BitVec 64))
(declare-fun var1064652 () (_ BitVec 64))
(declare-fun temp12085_13 () (_ BitVec 64))
(declare-fun temp12085_14 () (_ BitVec 64))
(declare-fun var1315402 () (_ BitVec 64))
(declare-fun var1315404 () (_ BitVec 64))
(declare-fun temp12085_15 () (_ BitVec 64))
(declare-fun var2034348 () (_ BitVec 64))
(declare-fun temp12085_16 () (_ BitVec 64))
(declare-fun var2362028 () (_ BitVec 64))
(declare-fun temp12085_17 () (_ BitVec 64))
(declare-fun var2560586 () (_ BitVec 64))
(declare-fun var2560588 () (_ BitVec 64))
(declare-fun temp12085_18 () (_ BitVec 64))
(declare-fun var1064769 () (_ BitVec 64))
(declare-fun temp12085_19 () (_ BitVec 64))
(declare-fun temp12085_20 () (_ BitVec 64))
(declare-fun var1064833 () (_ BitVec 64))
(declare-fun var1064845 () (_ BitVec 64))
(declare-fun temp12085_21 () (_ BitVec 64))
(declare-fun var3672748 () (_ BitVec 64))
(declare-fun temp12085_22 () (_ BitVec 64))
(declare-fun var1064857 () (_ BitVec 64))
(declare-fun var1064858 () (_ BitVec 64))
(declare-fun var1064859 () (_ BitVec 64))
(declare-fun var1064860 () (_ BitVec 64))
(declare-fun temp12085_23 () (_ BitVec 64))
(declare-fun var4198274 () (_ BitVec 64))
(declare-fun temp12085_24 () (_ BitVec 64))
(declare-fun var4274844 () (_ BitVec 64))
(declare-fun var4274845 () (_ BitVec 64))
(declare-fun var4274846 () (_ BitVec 64))
(declare-fun var4274848 () (_ BitVec 64))
(declare-fun temp12085_25 () (_ BitVec 64))
(declare-fun temp12085_26 () (_ BitVec 64))
(declare-fun var4989817 () (_ BitVec 64))
(declare-fun var4989821 () (_ BitVec 64))
(declare-fun temp12085_27 () (_ BitVec 64))
(declare-fun var4989849 () (_ BitVec 64))
(declare-fun temp12085_28 () (_ BitVec 64))
(declare-fun temp12085_29 () (_ BitVec 64))
(declare-fun temp12085_30 () (_ BitVec 64))
(declare-fun var5645177 () (_ BitVec 64))
(declare-fun var5645181 () (_ BitVec 64))
(declare-fun var4275009 () (_ BitVec 64))
(declare-fun temp12085_32 () (_ BitVec 64))
(declare-fun temp12085_31 () (_ BitVec 64))
(assert (= temp12085_1 #x0000000000000001))
(assert (= var75099
   (ite (bvslt ARGNAME_input_NAMEEND_DIM temp12085_1)
        #x0000000000000001
        #x0000000000000000)))
(assert (= temp12085_2 #x0000000000000000))
(assert (= var75099 temp12085_2))
(assert (= temp12085_3 #x0000000000000001))
(assert (= var75128
   (ite (bvslt ARGNAME_sections_NAMEEND temp12085_3)
        #x0000000000000001
        #x0000000000000000)))
(assert (= temp12085_4 #x0000000000000000))
(assert (= var75128 temp12085_4))
(assert (= temp12085_6 #x0000000000000000))
(assert (= temp12085_5 temp12085_6))
(assert (= temp12085_8 #x0000000000000000))
(assert (= temp12085_7 temp12085_8))
(assert (= var396610
   (ite (bvslt temp12085_7 ARGNAME_sections_NAMEEND)
        #x0000000000000001
        #x0000000000000000)))
(assert (= temp12085_9
   (ite (= var396610 #x0000000000000001) ARGNAME_sections_NAMEEND temp12085_7)))
(assert (= temp12085_10 #x0000000000000000))
(assert (= var462151 temp12085_10))
(assert (= var527698 var462151))
(assert (= var330637 var527698))
(assert (= temp12085_11 #x0000000000000001))
(assert (= var1064603 temp12085_11))
(assert (= temp12085_12 #x0000000000000000))
(assert (= var1064652
   (ite (= ARGNAME_input_NAMEEND_DIM temp12085_12)
        #x0000000000000001
        #x0000000000000000)))
(assert (= temp12085_13 #x0000000000000000))
(assert (= var1064652 temp12085_13))
(assert (= temp12085_14 #x0000000000000005))
(assert (= var1315402 temp12085_14))
(assert (= var1315404 var1315402))
(assert (= temp12085_15 #x0000000000000001))
(assert (= var2034348 temp12085_15))
(assert (= temp12085_16 #x0000000000000001))
(assert (= var2362028 temp12085_16))
(assert (= temp12085_17 #x0000000000000005))
(assert (= var2560586 temp12085_17))
(assert (= var2560588 var2560586))
(assert (= temp12085_18 #x0000000000000001))
(assert (= var1064769
   (ite (bvslt var1064603 temp12085_18) #x0000000000000001 #x0000000000000000)))
(assert (= temp12085_19 #x0000000000000000))
(assert (= var1064769 temp12085_19))
(assert (= temp12085_20 #x0000000000000000))
(assert (= var1064833 temp12085_20))
(assert (= var1064845 var1064833))
(assert (= temp12085_21 #x0000000000000002))
(assert (= var3672748 temp12085_21))
(assert (= temp12085_22 #xffffffffffffffff))
(assert (= var1064857 (bvxor var1064833 temp12085_22)))
(assert (= var1064858 (bvadd var1064857 var1064603)))
(assert (= var1064859 (bvadd var1064858 var1064845)))
(assert (= var1064860 (bvsdiv var1064859 var1064603)))
(assert (= temp12085_23 #x0000000000080000))
(assert (= var4198274 temp12085_23))
(assert (= temp12085_24 #x0000000000000000))
(assert (= var4274844 temp12085_24))
(assert (= var4274845 var1064833))
(assert (= var4274846 var1064845))
(assert (= var4274848 var1064603))
(assert (= temp12085_25 #x0000000000000000))
(assert (= var4274844 temp12085_25))
(assert (= temp12085_26 #x0000000000000000))
(assert (= var4989817 temp12085_26))
(assert (= var4989821 var4274848))
(assert (= temp12085_27 #x0000000000000000))
(assert (= var4989849 temp12085_27))
(assert (= temp12085_28 #x0000000000000000))
(assert (= var4989849 temp12085_28))
(assert (= temp12085_29 #x0000000000000000))
(assert (= var4274844 temp12085_29))
(assert (= temp12085_30 #x0000000000000000))
(assert (= var5645177 temp12085_30))
(assert (= var5645181 var4274848))
(assert (= var4275009 var4274844))
(assert (= temp12085_32 #x0000000000000000))
(assert (= temp12085_31 temp12085_32))
(model-add temp12085_1 () (_ BitVec 64) #x0000000000000001)
(model-add temp12085_2 () (_ BitVec 64) #x0000000000000000)
(model-add var75099 () (_ BitVec 64) #x0000000000000000)
(model-del k!0)
(model-add ARGNAME_input_NAMEEND_DIM
           ()
           (_ BitVec 64)
           (ite (or k!0 (= #x0000000000000001 #x8000000000000000))
                #x0000000000000001
                (bvsub #x0000000000000001 #x0000000000000001)))


